# Objective value = 5.5554074042189695e+24
TOL203F
REI201G
JAR617G
IDN401G
RAF201G
EFN202G
HBV401G
IDN403G
FER409G
FER210F
LIF410G
LIF243F
JAR202G
LIF615M
LIF403G
FER208G
EFN410G
IDN603G
JED201G
STA203G
MAS201F
EDL204G
STA411G
TOL203G
EFN406G
EDL612M
VEL201G
FER603M
VEL202G
JAR212G
BYG203M
LIF215G
TOV201G
HBV601G
STA205G
VEL218F
LAN410G
LAN209F
EDL402M
VEL601G
IDN209F
JAR253F
UMV213F
LIF401G
RAF401G
RAF616M
STA403M
UAU206M
EFN404G
BYG601G
LEF616M
UMV203G
LAN219G
JAR619G
JAR611G
FER609G
FER211F
EDL205G
TOL203M
VEL215F
LIF214G
HBV201G
EDL201G
EDL206G
EDL203G
LIF412M
LEF617M
STA405G
LAN205G
JAR415G
UMV203M
HBV203F
EFN208G
LAN401G
BYG201M
VEL405G
STA202G
JAR418G
UAU214M
BYG201G
LIF201G
EDL402G
BYG401G
TOL403G
STA418M
IDN402G
LIF614M
EFN612M
EFN205G
EFN214G
RAF403G
BYG603G
TOL401G
JAR211G
JAR417G
LIF633G
LIF227F
RAF601G
HBV402G
EFN408G
UMV201G
LAN203G
STA209G
LAN604M
STA207G
STA401G
LIF635G
TOV602M
TOL202M
LEF406G
REI202M
RAF402G
EDL401G
EFN207G
BYG202M
VEL401G
EDL403G
VEL402G
RAF404G
